20
14.0
0 19 0.3 1.19
1 18 0.26 1.69
2 17 0.27 2.47
3 16 0.2 3.27
4 15 0.19 4.05
5 14 0.16 4.94
6 13 0.1 6.15
7 12 0.13 7.4
8 11 0.02 8.96
9 10 0.01 10.77
10 9 0.46 0.57
11 8 0.49 0.56
12 7 0.48 0.47
13 6 0.51 0.55
14 5 0.66 0.45
15 4 0.55 0.37
16 3 0.26 0.61
17 2 0.75 0.72
18 1 0.1 0.73
